c   #vars: 47   #clauses: 194   #literals: 568
c 
p cnf 47 194
2 17 18 -47 0
7 -35 45 46 0
-3 -4 0
-5 -6 0
-5 21 37 38 0
1 -23 31 32 0
-9 -10 0
-11 -12 0
-13 -14 0
-15 -16 0
-17 -18 0
-19 -20 0
9 10 22 -46 0
5 6 -31 33 0
-23 -24 0
-25 -26 0
-27 -28 0
-29 -30 0
-31 -32 0
-17 29 30 34 0
-16 27 28 47 0
-35 -36 0
-37 -38 0
-39 -40 0
5 6 41 42 0
-41 -42 0
-43 -44 0
2 39 40 -47 0
19 20 39 40 0
17 18 39 40 0
-45 -46 0
7 -10 22 -45 0
-3 5 6 21 0
2 17 18 -39 0
-1 -24 0
27 28 41 42 0
-1 -32 0
-1 -38 0
8 17 18 -23 0
7 -22 45 46 0
-2 -18 0
-5 -6 8 -29 0
-5 31 32 33 0
-2 -40 0
15 16 31 32 0
-11 31 32 33 0
8 -23 29 30 0
-3 -19 0
-4 -20 0
7 22 -45 -46 0
-7 9 10 22 0
-4 -21 0
15 16 43 44 0
-3 -37 0
-4 -38 0
-15 17 18 34 0
-3 -41 0
-4 -42 0
-9 -10 35 36 0
-10 22 45 46 0
-6 -21 0
-5 -25 0
-6 -26 0
17 18 37 38 0
-5 -27 0
-6 -28 0
19 20 43 44 0
-15 29 30 34 0
-6 -33 0
5 6 27 28 0
-5 -41 0
-6 -42 0
31 32 41 42 0
9 10 35 36 0
8 23 24 -29 0
9 10 39 40 0
-3 21 37 38 0
5 6 -11 33 0
9 10 31 32 0
3 4 21 -37 0
-7 -36 0
2 -17 39 40 0
3 4 -5 21 0
-7 -46 0
1 -31 37 38 0
-8 -18 0
2 -28 -39 47 0
1 -23 37 38 0
-8 -24 0
7 -10 22 -35 0
1 23 24 -37 0
-8 -30 0
5 6 21 -37 0
8 -17 23 24 0
23 24 35 36 0
-9 -22 0
11 12 -31 33 0
-9 -31 0
-10 -32 0
9 10 -35 -36 0
1 23 24 -31 0
-9 -35 0
-10 -36 0
2 -16 -17 47 0
-9 -39 0
-10 -40 0
-5 -6 8 -23 0
-11 -25 0
-12 -26 0
8 -17 29 30 0
15 16 -29 34 0
-12 -33 0
7 22 -35 -46 0
-11 -37 0
-12 -38 0
3 4 41 42 0
-11 -41 0
-12 -42 0
-13 -19 0
-14 -20 0
2 -16 -39 47 0
-13 -25 0
-14 -26 0
23 24 45 46 0
-13 -27 0
-14 -28 0
13 14 35 36 0
-13 -35 0
-14 -36 0
13 14 19 20 0
-15 -31 0
-16 -32 0
-2 27 28 47 0
-16 -34 0
3 4 19 20 0
-15 -43 0
-16 -44 0
17 18 -29 34 0
-15 -47 0
3 4 37 38 0
15 16 -28 47 0
-18 -34 0
27 28 45 46 0
-17 -37 0
-18 -38 0
13 14 27 28 0
-17 -39 0
-18 -40 0
-19 -39 0
-20 -40 0
-19 -43 0
-20 -44 0
7 -22 35 36 0
-7 22 45 46 0
-21 -38 0
-5 -6 8 -17 0
-22 -45 0
-5 11 12 33 0
13 14 25 26 0
-23 -35 0
-24 -36 0
11 12 25 26 0
-23 -45 0
-24 -46 0
2 -17 -28 47 0
-25 -43 0
-26 -44 0
11 12 37 38 0
-27 -41 0
-28 -42 0
8 17 18 -29 0
-27 -45 0
-28 -46 0
29 30 39 40 0
-27 -47 0
11 12 41 42 0
-2 15 16 47 0
-30 -34 0
29 30 43 44 0
-29 -39 0
-30 -40 0
25 26 43 44 0
-29 -43 0
-30 -44 0
15 16 -17 34 0
-32 -33 0
31 32 35 36 0
-31 -35 0
-32 -36 0
5 6 25 26 0
-31 -41 0
-32 -42 0
7 35 36 -45 0
1 31 32 -37 0
